40
1 0 2
2 0 3
2 1 1
3 0 2
3 1 2
3 2 2
4 0 2
4 1 4
4 2 1
4 3 2
5 0 4
5 1 3
5 2 2
5 3 3
5 4 1
6 0 2
6 1 3
6 2 3
6 3 1
6 4 3
6 5 4
7 0 3
7 1 2
7 2 4
7 3 1
7 4 2
7 5 1
7 6 1
8 0 4
8 1 1
8 2 1
8 3 1
8 4 2
8 5 1
8 6 1
8 7 2
9 0 1
9 1 2
9 2 1
9 3 3
9 4 4
9 5 1
9 6 3
9 7 4
9 8 3
10 0 4
10 1 4
10 2 2
10 3 2
10 4 1
10 5 2
10 6 1
10 7 1
10 8 1
10 9 1
11 0 1
11 1 2
11 2 4
11 3 1
11 4 2
11 5 3
11 6 1
11 7 2
11 8 1
11 9 4
11 10 3
12 0 4
12 1 3
12 2 3
12 3 2
12 4 1
12 5 3
12 6 2
12 7 4
12 8 1
12 9 4
12 10 4
12 11 2
13 0 3
13 1 4
13 2 1
13 3 3
13 4 2
13 5 4
13 6 3
13 7 2
13 8 4
13 9 4
13 10 3
13 11 2
13 12 1
14 0 1
14 1 4
14 2 4
14 3 3
14 4 3
14 5 1
14 6 2
14 7 2
14 8 2
14 9 4
14 10 1
14 11 1
14 12 2
14 13 1
15 0 1
15 1 3
15 2 2
15 3 4
15 4 3
15 5 4
15 6 1
15 7 3
15 8 2
15 9 1
15 10 1
15 11 4
15 12 1
15 13 2
15 14 3
16 0 3
16 1 2
16 2 1
16 3 2
16 4 1
16 5 1
16 6 2
16 7 4
16 8 4
16 9 3
16 10 1
16 11 2
16 12 3
16 13 2
16 14 1
16 15 3
17 0 3
17 1 3
17 2 2
17 3 2
17 4 2
17 5 1
17 6 2
17 7 4
17 8 4
17 9 4
17 10 1
17 11 3
17 12 4
17 13 1
17 14 1
17 15 2
17 16 2
18 0 3
18 1 2
18 2 2
18 3 2
18 4 1
18 5 4
18 6 1
18 7 2
18 8 1
18 9 1
18 10 4
18 11 3
18 12 1
18 13 2
18 14 3
18 15 3
18 16 2
18 17 4
19 0 1
19 1 2
19 2 4
19 3 4
19 4 4
19 5 4
19 6 1
19 7 4
19 8 1
19 9 3
19 10 3
19 11 2
19 12 2
19 13 2
19 14 2
19 15 1
19 16 1
19 17 1
19 18 4
20 0 1
20 1 3
20 2 1
20 3 4
20 4 3
20 5 1
20 6 4
20 7 4
20 8 4
20 9 2
20 10 4
20 11 2
20 12 4
20 13 1
20 14 1
20 15 2
20 16 4
20 17 2
20 18 1
20 19 2
21 0 2
21 1 4
21 2 1
21 3 4
21 4 1
21 5 4
21 6 2
21 7 4
21 8 2
21 9 1
21 10 1
21 11 4
21 12 1
21 13 1
21 14 1
21 15 3
21 16 3
21 17 1
21 18 4
21 19 4
21 20 4
22 0 3
22 1 4
22 2 2
22 3 1
22 4 1
22 5 2
22 6 2
22 7 1
22 8 3
22 9 3
22 10 4
22 11 3
22 12 1
22 13 1
22 14 2
22 15 1
22 16 4
22 17 1
22 18 1
22 19 4
22 20 1
22 21 3
23 0 1
23 1 2
23 2 2
23 3 1
23 4 2
23 5 1
23 6 2
23 7 3
23 8 2
23 9 3
23 10 4
23 11 2
23 12 1
23 13 1
23 14 4
23 15 4
23 16 3
23 17 2
23 18 1
23 19 1
23 20 2
23 21 1
23 22 1
24 0 3
24 1 4
24 2 1
24 3 2
24 4 2
24 5 3
24 6 1
24 7 1
24 8 3
24 9 3
24 10 4
24 11 3
24 12 3
24 13 2
24 14 3
24 15 1
24 16 3
24 17 3
24 18 4
24 19 1
24 20 2
24 21 1
24 22 3
24 23 2
25 0 4
25 1 1
25 2 4
25 3 4
25 4 1
25 5 1
25 6 3
25 7 4
25 8 2
25 9 3
25 10 1
25 11 4
25 12 3
25 13 1
25 14 1
25 15 3
25 16 3
25 17 4
25 18 1
25 19 2
25 20 3
25 21 2
25 22 4
25 23 3
25 24 1
26 0 4
26 1 4
26 2 3
26 3 3
26 4 3
26 5 2
26 6 2
26 7 2
26 8 1
26 9 4
26 10 1
26 11 4
26 12 2
26 13 4
26 14 1
26 15 2
26 16 2
26 17 2
26 18 4
26 19 2
26 20 3
26 21 4
26 22 3
26 23 2
26 24 2
26 25 4
27 0 3
27 1 1
27 2 2
27 3 3
27 4 3
27 5 3
27 6 4
27 7 4
27 8 4
27 9 4
27 10 2
27 11 4
27 12 4
27 13 1
27 14 4
27 15 4
27 16 4
27 17 1
27 18 4
27 19 4
27 20 2
27 21 4
27 22 3
27 23 1
27 24 2
27 25 2
27 26 1
28 0 4
28 1 4
28 2 3
28 3 1
28 4 2
28 5 4
28 6 1
28 7 2
28 8 2
28 9 1
28 10 1
28 11 3
28 12 2
28 13 2
28 14 3
28 15 2
28 16 2
28 17 2
28 18 4
28 19 4
28 20 2
28 21 2
28 22 1
28 23 3
28 24 3
28 25 1
28 26 1
28 27 2
29 0 2
29 1 1
29 2 4
29 3 4
29 4 1
29 5 1
29 6 3
29 7 3
29 8 4
29 9 4
29 10 1
29 11 2
29 12 2
29 13 1
29 14 3
29 15 2
29 16 3
29 17 3
29 18 2
29 19 4
29 20 3
29 21 3
29 22 1
29 23 1
29 24 4
29 25 1
29 26 1
29 27 4
29 28 2
30 0 2
30 1 4
30 2 1
30 3 1
30 4 1
30 5 3
30 6 4
30 7 4
30 8 4
30 9 1
30 10 2
30 11 4
30 12 3
30 13 2
30 14 4
30 15 2
30 16 4
30 17 2
30 18 2
30 19 3
30 20 1
30 21 3
30 22 3
30 23 1
30 24 3
30 25 4
30 26 3
30 27 2
30 28 3
30 29 1
31 0 4
31 1 1
31 2 3
31 3 1
31 4 2
31 5 2
31 6 3
31 7 3
31 8 3
31 9 1
31 10 3
31 11 2
31 12 2
31 13 2
31 14 1
31 15 2
31 16 3
31 17 2
31 18 1
31 19 1
31 20 1
31 21 1
31 22 2
31 23 4
31 24 4
31 25 3
31 26 2
31 27 4
31 28 4
31 29 3
31 30 3
32 0 4
32 1 1
32 2 3
32 3 3
32 4 1
32 5 3
32 6 2
32 7 4
32 8 4
32 9 1
32 10 3
32 11 3
32 12 4
32 13 3
32 14 4
32 15 1
32 16 4
32 17 1
32 18 2
32 19 4
32 20 4
32 21 2
32 22 2
32 23 1
32 24 4
32 25 1
32 26 2
32 27 3
32 28 1
32 29 3
32 30 4
32 31 3
33 0 2
33 1 2
33 2 1
33 3 1
33 4 1
33 5 1
33 6 2
33 7 4
33 8 4
33 9 2
33 10 4
33 11 1
33 12 3
33 13 4
33 14 3
33 15 3
33 16 3
33 17 2
33 18 3
33 19 3
33 20 4
33 21 1
33 22 2
33 23 3
33 24 2
33 25 1
33 26 1
33 27 3
33 28 1
33 29 1
33 30 3
33 31 4
33 32 3
34 0 2
34 1 2
34 2 4
34 3 3
34 4 2
34 5 3
34 6 2
34 7 1
34 8 2
34 9 1
34 10 1
34 11 4
34 12 2
34 13 1
34 14 1
34 15 1
34 16 3
34 17 1
34 18 3
34 19 1
34 20 1
34 21 2
34 22 2
34 23 2
34 24 3
34 25 1
34 26 4
34 27 3
34 28 2
34 29 1
34 30 1
34 31 1
34 32 4
34 33 2
35 0 2
35 1 2
35 2 1
35 3 1
35 4 3
35 5 1
35 6 2
35 7 4
35 8 2
35 9 1
35 10 1
35 11 3
35 12 1
35 13 4
35 14 3
35 15 1
35 16 1
35 17 3
35 18 3
35 19 1
35 20 3
35 21 4
35 22 3
35 23 1
35 24 3
35 25 1
35 26 2
35 27 1
35 28 3
35 29 3
35 30 2
35 31 3
35 32 3
35 33 3
35 34 4
36 0 1
36 1 3
36 2 3
36 3 1
36 4 3
36 5 4
36 6 2
36 7 3
36 8 2
36 9 4
36 10 4
36 11 4
36 12 4
36 13 4
36 14 1
36 15 1
36 16 3
36 17 1
36 18 1
36 19 4
36 20 1
36 21 1
36 22 4
36 23 1
36 24 2
36 25 2
36 26 2
36 27 3
36 28 4
36 29 3
36 30 1
36 31 1
36 32 4
36 33 3
36 34 3
36 35 2
37 0 2
37 1 2
37 2 3
37 3 4
37 4 2
37 5 2
37 6 2
37 7 3
37 8 4
37 9 2
37 10 4
37 11 3
37 12 3
37 13 3
37 14 1
37 15 3
37 16 2
37 17 3
37 18 2
37 19 1
37 20 3
37 21 1
37 22 1
37 23 1
37 24 4
37 25 1
37 26 2
37 27 2
37 28 3
37 29 2
37 30 4
37 31 1
37 32 4
37 33 1
37 34 2
37 35 3
37 36 3
38 0 4
38 1 1
38 2 3
38 3 4
38 4 4
38 5 3
38 6 4
38 7 3
38 8 2
38 9 4
38 10 4
38 11 2
38 12 2
38 13 4
38 14 3
38 15 4
38 16 1
38 17 2
38 18 3
38 19 2
38 20 1
38 21 3
38 22 1
38 23 2
38 24 2
38 25 4
38 26 4
38 27 4
38 28 3
38 29 1
38 30 2
38 31 2
38 32 1
38 33 2
38 34 2
38 35 3
38 36 1
38 37 2
39 0 1
39 1 2
39 2 2
39 3 1
39 4 1
39 5 2
39 6 3
39 7 3
39 8 1
39 9 4
39 10 1
39 11 3
39 12 3
39 13 1
39 14 4
39 15 4
39 16 2
39 17 1
39 18 1
39 19 1
39 20 2
39 21 3
39 22 4
39 23 3
39 24 4
39 25 1
39 26 1
39 27 4
39 28 2
39 29 3
39 30 4
39 31 2
39 32 3
39 33 4
39 34 2
39 35 4
39 36 3
39 37 4
39 38 3
